language ESSENCE' 1.0

letting fixed be 
[
    [6,5,0,0,8,7,0,2,4],
    [0,0,0,6,4,9,0,5,0],
    [0,4,0,0,2,5,0,0,0],
    [5,7,0,4,3,8,0,6,1],
    [0,0,0,5,0,1,0,0,0],
    [3,1,0,9,0,2,0,8,5],
    [0,0,0,8,9,0,0,1,0],
    [0,0,0,2,1,3,0,0,0],
    [1,3,0,7,5,0,0,9,8]
]
